c ---- [ banner ] ------------------------------------------------------------
c
c Kissat SAT Solver
c 
c Copyright (c) 2021-2024 Armin Biere University of Freiburg
c Copyright (c) 2019-2021 Armin Biere Johannes Kepler University Linz
c 
c Version 4.0.1 43f02cf3e992cb44653b35e5cb26f93281552ae0
c gcc (Ubuntu 13.2.0-23ubuntu4) 13.2.0 -W -Wall -O3 -DNDEBUG
c Thu Sep 12 12:27:46 CEST 2024 Linux abryzen9 6.8.0-41-generic x86_64
c
c ---- [ parsing ] -----------------------------------------------------------
c
c opened and reading DIMACS file:
c
c   /data/artifact/AMulet2.0_artifact/exp4/cnf_resyn3_64/64_64_U1_DT_HCA_Multgen_resyn3.cnf
c
c parsed 'p cnf 26000 115776' header
c closing input after reading 2292264 bytes (2 MB)
c finished parsing after 0.02 seconds
c
c ---- [ options ] -----------------------------------------------------------
c
c --stable=0                       (different from default '1')
c
c ---- [ solving ] -----------------------------------------------------------
c
c  seconds switched rate     size/glue tier1  binary           remaining
c         MB reductions conflicts size  tier2     irredundant
c          level restarts redundant glue  trail           variables
c
c *  0.02 10 0 0 0  0 0   0   0 0.0 0 0 0 0 0% 10710 105064 25997 100%
c (  0.03 11 0 0 0  0 0   0   0 0.0 0 0 0 0 0% 10710 105064 25997 100%
c .  0.03 11 0 0 0  0 0   0   0 0.0 0 0 0 0 0% 10706 105064 25997 100%
c =  0.10 16 0 0 0  0 0   0   0 0.0 0 0 0 0 0% 10780 105064 25974 100%
c d  0.11 16 0 0 0  0 0   0   0 0.0 0 0 0 0 0% 10734 105064 25974 100%
c f  0.17 15 0 0 0  0 0   0   0 0.0 0 0 0 0 0% 15637 97372 28740 111%
c e  0.29 25 0 0 0  0 0   0   0 0.0 0 0 0 0 0% 10056 105427 19830 76%
c )  0.29 25 0 0 0  0 0   0   0 0.0 0 0 0 0 0% 10056 105427 19830 76%
c {  0.30 25 0 0 0  0 0   0   0 0.0 0 0 2 6 0% 10056 105427 19830 76%
c -  0.49 27 95 0 1 313 31 1000 781 1.9 11 6 3 11 19% 10089 105427 19830 76%
c -  0.76 27 199 0 2 504 38 2001 1494 3.1 20 6 3 11 24% 10105 105427 19830 76%
c d  0.84 27 260 0 2 563 39 2504 1935 3.3 20 6 3 11 24% 10115 105427 19827 76%
c u  0.86 27 260 0 2 563 39 2504 1614 3.3 20 6 3 11 24% 10123 105427 19827 76%
c v  0.88 27 260 0 2 563 39 2504 1359 3.3 20 6 3 11 24% 10123 105427 19827 76%
c w  0.89 27 260 0 2 563 39 2504 1359 3.3 20 6 3 11 24% 10123 105427 19827 76%
c x  0.91 27 260 0 2 563 39 2504 1359 3.3 20 6 3 11 24% 10123 105421 19827 76%
c =  0.98 27 260 0 2 563 39 2504 1359 3.3 20 6 3 11 24% 10135 105419 19821 76%
c d  0.99 27 260 0 2 563 39 2504 1359 3.3 20 6 3 11 24% 10123 105419 19821 76%
c t  1.00 27 260 0 2 563 39 2504 1359 3.3 20 6 3 11 24% 10122 105419 19821 76%
c f  1.02 27 260 0 2 563 39 2504 1359 3.3 20 6 3 11 24% 10707 104232 20409 78%
c
c  seconds   switched   rate       size/glue tier1     binary           remaining
c         MB  reductions conflicts       size  tier2       irredundant
c           level restarts    redundant    glue    trail           variables
c
c c  1.07 23 260 0 2 563 39 2504 1359 3.3 20 6 3 11 24% 10712 104216 20407 78%
c d  1.07 23 260 0 2 563 39 2504 1359 3.3 20 6 3 11 24% 10708 104216 20407 78%
c u  1.09 23 260 0 2 563 39 2504 1321 3.3 20 6 3 11 24% 10711 104216 20407 78%
c v  1.10 23 260 0 2 563 39 2504 1291 3.3 20 6 3 11 24% 10711 104216 20407 78%
c w  1.14 26 260 0 2 563 39 2504 1285 3.3 20 6 3 11 24% 10711 104216 20407 78%
c =  1.19 26 260 0 2 563 39 2504 1285 3.3 20 6 3 11 24% 10885 104216 20320 78%
c d  1.20 26 260 0 2 563 39 2504 1285 3.3 20 6 3 11 24% 10647 104216 20320 78%
c f  1.23 26 260 0 2 563 39 2504 1285 3.3 20 6 3 11 24% 10705 104129 20349 78%
c -  1.39 26 256 0 3 672 36 3415 1765 3.1 19 6 3 12 24% 10753 104129 20349 78%
c -  1.75 28 327 0 4 915 40 5148 2901 3.5 21 6 3 11 25% 10811 104129 20349 78%
c -  2.17 29 333 0 5 1148 41 7149 3884 3.8 25 6 2 11 26% 10886 104129 20349 78%
c d  2.26 29 339 0 5 1207 40 7708 4369 4.0 25 6 2 11 25% 10793 104129 20296 78%
c u  2.28 29 339 0 5 1207 40 7708 3877 4.0 25 6 2 11 25% 10819 104129 20296 78%
c v  2.31 29 339 0 5 1207 40 7708 3360 4.0 25 6 2 11 25% 10820 104129 20296 78%
c w  2.34 29 339 0 5 1207 40 7708 3360 4.0 25 6 2 11 25% 10820 104129 20296 78%
c x  2.37 29 339 0 5 1207 40 7708 3360 4.0 25 6 2 11 25% 10820 104105 20296 78%
c =  2.45 29 339 0 5 1207 40 7708 3360 4.0 25 6 2 11 25% 11234 104105 20089 77%
c d  2.46 29 339 0 5 1207 40 7708 3360 4.0 25 6 2 11 25% 10618 104105 20088 77%
c t  2.47 29 339 0 5 1207 40 7708 3360 4.0 25 6 2 11 25% 10607 104105 20088 77%
c f  2.51 29 339 0 5 1207 40 7708 3360 4.0 25 6 2 11 25% 12938 100586 21254 82%
c
c  seconds   switched    rate       size/glue tier1     binary           remaining
c         MB  reductions  conflicts       size  tier2       irredundant
c           level  restarts    redundant    glue    trail           variables
c
c u  2.54 29 339 0 5 1207 40 7708 3248 4.0 25 6 2 11 25% 12944 100586 21254 82%
c v  2.56 29 339 0 5 1207 40 7708 3141 4.0 25 6 2 11 25% 12944 100586 21254 82%
c w  2.60 29 339 0 5 1207 40 7708 3136 4.0 25 6 2 11 25% 12944 100586 21254 82%
c =  2.70 29 339 0 5 1207 40 7708 3136 4.0 25 6 2 11 25% 13330 100586 21061 81%
c d  2.71 29 339 0 5 1207 40 7708 3131 4.0 25 6 2 11 25% 12837 100586 21061 81%
c t  2.72 29 339 0 5 1207 40 7708 3131 4.0 25 6 2 11 25% 12730 100586 21061 81%
c f  2.76 29 339 0 5 1207 40 7708 3131 4.0 25 6 2 11 25% 15066 97082 22229 85%
c -  3.09 29 319 0 6 1397 39 9385 3969 3.9 26 7 2 10 26% 15121 97082 22229 85%
c o  3.22 29 320 0 6 1475 39 10056 4568 3.9 27 7 2 10 26% 15140 97082 22229 85%
c -  3.68 29 305 0 7 1692 39 11836 5324 4.2 32 8 2 10 27% 15184 97082 22229 85%
c s  3.80 29 316 0 7 1714 38 12508 5903 4.2 32 8 2 10 28% 15206 95942 22229 85%
c e  3.88 29 316 0 7 1714 38 12508 5903 4.2 32 8 2 10 28% 14722 96144 21718 84%
c s  3.89 29 316 0 7 1714 38 12508 5903 4.2 32 8 2 10 28% 14723 95947 21718 84%
c e  3.89 29 316 0 7 1714 38 12508 5903 4.2 32 8 2 10 28% 14626 96030 21675 83%
c ^  3.89 29 316 0 7 1714 38 12508 5903 4.2 32 8 2 10 28% 14626 96030 21675 83%
c -  4.24 29 314 0 8 1852 37 14484 6407 4.3 32 8 2 10 28% 14670 96030 21675 83%
c c  4.66 29 306 0 8 2009 37 15789 7483 4.4 34 8 2 10 29% 14740 95957 21639 83%
c d  4.66 29 306 0 8 2009 37 15789 7465 4.4 34 8 2 10 29% 14098 95957 21307 82%
c u  4.69 29 306 0 8 2009 37 15789 6468 4.4 34 8 2 10 29% 14121 95957 21307 82%
c v  4.73 29 306 0 8 2009 37 15789 5457 4.4 34 8 2 10 29% 14123 95957 21307 82%
c
c  seconds   switched    rate        size/glue tier1     binary          remaining
c         MB  reductions   conflicts       size  tier2       irredundant
c           level  restarts     redundant    glue    trail          variables
c
c w  4.85 29 306 0 8 2009 37 15789 5448 4.4 34 8 2 10 29% 14123 95957 21307 82%
c =  5.04 29 306 0 8 2009 37 15789 5448 4.4 34 8 2 10 29% 15399 95957 20669 79%
c d  5.05 29 306 0 8 2009 37 15789 5404 4.4 34 8 2 10 29% 13535 95957 20665 79%
c t  5.07 29 306 0 8 2009 37 15789 5404 4.4 34 8 2 10 29% 13467 95957 20665 79%
c f  5.10 29 306 0 8 2009 37 15789 5404 4.4 34 8 2 10 29% 13473 95897 20690 80%
c u  5.14 29 306 0 8 2009 37 15789 5185 4.4 34 8 2 10 29% 13477 95897 20690 80%
c v  5.16 29 306 0 8 2009 37 15789 5066 4.4 34 8 2 10 29% 13477 95897 20690 80%
c w  5.24 29 306 0 8 2009 37 15789 5046 4.4 34 8 2 10 29% 13477 95897 20690 80%
c x  5.28 29 306 0 8 2009 37 15789 5046 4.4 34 8 2 10 29% 13477 95486 20690 80%
c =  5.48 29 306 0 8 2009 37 15789 5046 4.4 34 8 2 10 29% 18195 95486 18331 71%
c d  5.49 29 306 0 8 2009 37 15789 4881 4.4 34 8 2 10 29% 11402 95486 18331 71%
c -  5.82 29 308 0 9 2138 36 17313 5505 4.4 34 8 2 10 29% 11429 95486 18331 71%
c o  6.20 29 296 0 9 2336 34 20074 7941 4.2 33 8 2 10 28% 11471 95486 18331 71%
c -  6.26 29 294 0 10 2377 34 20314 7197 4.2 34 8 2 9 28% 11472 95486 18331 71%
c -  6.93 29 294 0 11 2678 34 23476 8799 4.3 35 8 2 9 29% 11515 95486 18331 71%
c s  7.15 29 299 0 11 2771 34 25013 10201 4.3 35 8 2 9 29% 11536 89291 18331 71%
c e  7.23 29 299 0 11 2771 34 25013 10201 4.3 35 8 2 9 29% 9880 91787 17314 67%
c s  7.24 29 299 0 11 2771 34 25013 10201 4.3 35 8 2 9 29% 9883 91636 17314 67%
c e  7.24 29 299 0 11 2771 34 25013 10201 4.3 35 8 2 9 29% 9874 91646 17309 67%
c ^  7.24 29 299 0 11 2771 34 25013 10201 4.3 35 8 2 9 29% 9874 91646 17309 67%
c
c  seconds   switched     rate        size/glue tier1    binary         remaining
c         MB   reductions   conflicts       size  tier2     irredundant
c           level   restarts     redundant    glue   trail         variables
c
c -  7.48 29 299 0 12 2877 33 26792 9488 4.2 34 8 2 9 29% 9926 91646 17309 67%
c c  7.53 29 299 0 12 2877 32 26917 9605 4.2 34 8 2 9 29% 9991 91254 17251 66%
c d  7.53 29 299 0 12 2877 32 26917 9494 4.2 34 8 2 9 29% 9815 91254 17215 66%
c u  7.56 29 299 0 12 2877 32 26917 7962 4.2 34 8 2 9 29% 9826 91254 17215 66%
c v  7.59 29 299 0 12 2877 32 26917 7072 4.2 34 8 2 9 29% 9828 91254 17215 66%
c w  7.60 29 299 0 12 2877 32 26917 7071 4.2 34 8 2 9 29% 9828 91254 17215 66%
c =  7.80 29 299 0 12 2877 32 26917 7071 4.2 34 8 2 9 29% 12886 91242 15686 60%
c d  7.81 29 299 0 12 2877 32 26917 6908 4.2 34 8 2 9 29% 9747 91242 15686 60%
c t  7.82 29 299 0 12 2877 32 26917 6908 4.2 34 8 2 9 29% 9705 91242 15686 60%
c f  7.86 29 299 0 12 2877 32 26917 6908 4.2 34 8 2 9 29% 9707 91194 15699 60%
c c  7.90 29 299 0 12 2877 32 26917 6908 4.2 34 8 2 9 29% 9709 91186 15698 60%
c d  7.91 29 299 0 12 2877 32 26917 6908 4.2 34 8 2 9 29% 9707 91186 15698 60%
c u  7.93 29 299 0 12 2877 32 26917 6456 4.2 34 8 2 9 29% 9711 91186 15698 60%
c v  7.95 29 299 0 12 2877 32 26917 6335 4.2 34 8 2 9 29% 9712 91186 15698 60%
c w  7.96 29 299 0 12 2877 32 26917 6334 4.2 34 8 2 9 29% 9712 91186 15698 60%
c x  8.03 29 299 0 12 2877 32 26917 6334 4.2 34 8 2 9 29% 9714 84273 15698 60%
c =  8.19 29 299 0 12 2877 32 26917 6334 4.2 34 8 2 9 29% 10596 84273 15257 59%
c d  8.20 29 299 0 12 2877 32 26917 6318 4.2 34 8 2 9 29% 9699 84273 15256 59%
c t  8.21 29 299 0 12 2877 32 26917 6318 4.2 34 8 2 9 29% 9646 84273 15256 59%
c f  8.22 29 299 0 12 2877 32 26917 6318 4.2 34 8 2 9 29% 9647 84258 15260 59%
c
c  seconds   switched     rate        size/glue tier1    binary         remaining
c         MB   reductions   conflicts       size  tier2     irredundant
c           level   restarts     redundant    glue   trail         variables
c
c -  8.72 29 298 0 13 3159 31 30256 8252 4.2 34 8 2 9 29% 9673 84258 15260 59%
c -  9.21 29 292 0 14 3410 30 33861 10094 4.1 34 8 2 8 28% 9730 84258 15260 59%
c -  9.72 29 287 0 15 3699 30 37605 11666 4.1 34 8 2 8 28% 9778 84257 15260 59%
c o 10.10 29 283 0 15 3893 30 40097 13850 4.0 33 8 2 8 28% 9820 84256 15260 59%
c d 10.34 29 283 0 15 4040 30 41245 14749 4.0 34 8 2 8 29% 9715 84256 15204 58%
c u 10.39 29 283 0 15 4040 30 41245 12535 4.0 34 8 2 8 29% 9741 84256 15204 58%
c v 10.45 29 283 0 15 4040 30 41245 11040 4.0 34 8 2 8 29% 9746 84256 15204 58%
c w 10.49 29 283 0 15 4040 30 41245 11040 4.0 34 8 2 8 29% 9746 84256 15204 58%
c x 10.54 29 283 0 15 4040 30 41245 11039 4.0 34 8 2 8 29% 9746 78719 15204 58%
c = 10.73 29 283 0 15 4040 30 41245 11039 4.0 34 8 2 8 29% 9760 78719 15197 58%
c d 10.74 29 283 0 15 4040 30 41245 11025 4.0 34 8 2 8 29% 9733 78719 15191 58%
c t 10.75 29 283 0 15 4040 30 41245 11025 4.0 34 8 2 8 29% 9730 78719 15191 58%
c f 10.76 29 283 0 15 4040 30 41245 11025 4.0 34 8 2 8 29% 9732 78713 15192 58%
c c 10.79 29 283 0 15 4040 30 41245 10976 4.0 34 8 2 8 29% 9789 78487 15163 58%
c d 10.80 29 283 0 15 4040 30 41245 10976 4.0 34 8 2 8 29% 9731 78487 15163 58%
c u 10.83 29 283 0 15 4040 30 41245 10423 4.0 34 8 2 8 29% 9739 78487 15163 58%
c v 10.87 29 283 0 15 4040 30 41245 10003 4.0 34 8 2 8 29% 9742 78487 15163 58%
c w 10.95 29 283 0 15 4040 30 41245 9997 4.0 34 8 2 8 29% 9742 78487 15163 58%
c x 11.01 29 283 0 15 4040 30 41245 9997 4.0 34 8 2 8 29% 9742 76756 15163 58%
c = 11.22 29 283 0 15 4040 30 41245 9997 4.0 34 8 2 8 29% 10716 76756 14676 56%
c
c  seconds   switched     rate        size/glue tier1    binary         remaining
c         MB   reductions   conflicts       size  tier2     irredundant
c           level   restarts     redundant    glue   trail         variables
c
c d 11.22 29 283 0 15 4040 30 41245 9844 4.0 34 8 2 8 29% 9722 76756 14674 56%
c t 11.23 29 283 0 15 4040 30 41245 9844 4.0 34 8 2 8 29% 9718 76756 14674 56%
c f 11.25 29 283 0 15 4040 30 41245 9844 4.0 34 8 2 8 29% 9717 76754 14675 56%
c - 11.28 29 282 0 16 4061 30 41478 8678 4.0 34 8 2 8 29% 9727 76754 14675 56%
c - 11.89 29 275 0 17 4450 30 45479 10782 4.0 34 9 2 8 29% 9765 76754 14675 56%
c - 12.24 29 287 0 18 4669 28 49602 12580 3.9 33 9 2 8 28% 9823 76754 14675 56%
c s 12.72 29 282 0 18 4987 28 52113 14874 3.9 34 9 2 8 28% 9848 73414 14675 56%
c e 12.78 29 282 0 18 4987 28 52113 14874 3.9 34 9 2 8 28% 9430 74047 14285 55%
c s 12.79 29 282 0 18 4987 28 52113 14874 3.9 34 9 2 8 28% 9433 73708 14285 55%
c e 12.79 29 282 0 18 4987 28 52113 14874 3.9 34 9 2 8 28% 9427 73710 14279 55%
c ^ 12.79 29 282 0 18 4987 28 52113 14874 3.9 34 9 2 8 28% 9427 73710 14279 55%
c - 12.95 29 279 0 19 5056 28 53844 12877 3.9 33 9 2 8 29% 9444 73710 14279 55%
c - 13.38 29 276 0 20 5289 27 58203 14687 3.8 32 8 2 7 28% 9526 73710 14279 55%
c c 13.52 29 275 0 20 5354 27 58883 15309 3.8 32 8 2 7 28% 9685 72863 14158 54%
c d 13.53 29 275 0 20 5354 27 58883 14995 3.8 32 8 2 7 28% 9443 72863 14158 54%
c u 13.57 29 275 0 20 5354 27 58883 12355 3.8 32 8 2 7 28% 9470 72863 14158 54%
c v 13.62 29 275 0 20 5354 27 58883 10994 3.8 32 8 2 7 28% 9474 72863 14158 54%
c w 13.66 29 275 0 20 5354 27 58883 10992 3.8 32 8 2 7 28% 9474 72863 14158 54%
c x 13.71 29 275 0 20 5354 27 58883 10991 3.8 32 8 2 7 28% 9474 72566 14158 54%
c = 13.93 29 275 0 20 5354 27 58883 10991 3.8 32 8 2 7 28% 10820 72558 13485 52%
c
c  seconds   switched     rate         size/glue tier1    binary         remaining
c         MB   reductions   conflicts        size  tier2     irredundant
c           level   restarts      redundant    glue   trail         variables
c
c d 13.94 29 275 0 20 5354 27 58883 10626 3.8 32 8 2 7 28% 9403 72558 13481 52%
c t 13.95 29 275 0 20 5354 27 58883 10626 3.8 32 8 2 7 28% 9356 72558 13481 52%
c f 13.97 29 275 0 20 5354 27 58883 10626 3.8 32 8 2 7 28% 9355 72497 13491 52%
c c 14.01 29 275 0 20 5354 27 58883 10615 3.8 32 8 2 7 28% 9358 72481 13489 52%
c d 14.02 29 275 0 20 5354 27 58883 10615 3.8 32 8 2 7 28% 9354 72481 13489 52%
c u 14.05 29 275 0 20 5354 27 58883 9884 3.8 32 8 2 7 28% 9355 72481 13489 52%
c v 14.08 29 275 0 20 5354 27 58883 9610 3.8 32 8 2 7 28% 9355 72481 13489 52%
c w 14.13 29 275 0 20 5354 27 58883 9585 3.8 32 8 2 7 28% 9355 72481 13489 52%
c x 14.20 29 275 0 20 5354 27 58883 9584 3.8 32 8 2 7 28% 9368 67749 13489 52%
c = 14.47 29 275 0 20 5354 27 58883 9584 3.8 32 8 2 7 28% 9724 67654 13302 51%
c d 14.47 29 275 0 20 5354 27 58883 9516 3.8 32 8 2 7 28% 9327 67654 13302 51%
c t 14.48 29 275 0 20 5354 27 58883 9516 3.8 32 8 2 7 28% 9281 67654 13302 51%
c f 14.49 29 275 0 20 5354 27 58883 9516 3.8 32 8 2 7 28% 9279 67651 13303 51%
c - 14.76 29 271 0 21 5513 26 62675 11284 3.7 31 8 2 7 28% 9306 67651 13303 51%
c - 15.26 29 263 0 22 5823 25 67258 13631 3.6 30 8 2 7 28% 9329 67650 13303 51%
c o 15.49 29 258 0 22 5971 25 70100 15967 3.6 30 8 2 7 28% 9394 67650 13303 51%
c - 15.71 29 256 0 23 6091 24 71949 15422 3.5 30 8 2 7 28% 9400 67650 13303 51%
c - 16.27 29 248 0 24 6466 24 76748 16975 3.5 29 8 2 7 27% 9490 67645 13303 51%
c d 16.53 29 241 0 24 6621 23 79983 19088 3.5 29 8 2 7 27% 9346 67645 13184 51%
c u 16.58 29 241 0 24 6621 23 79983 15812 3.5 29 8 2 7 27% 9389 67645 13184 51%
c
c  seconds   switched     rate         size/glue tier1    binary         remaining
c         MB   reductions   conflicts        size  tier2     irredundant
c           level   restarts      redundant    glue   trail         variables
c
c v 16.62 29 241 0 24 6621 23 79983 15056 3.5 29 8 2 7 27% 9389 67645 13184 51%
c w 16.65 29 241 0 24 6621 23 79983 14964 3.5 29 8 2 7 27% 9389 67645 13184 51%
c x 16.70 29 241 0 24 6621 23 79983 14962 3.5 29 8 2 7 27% 9389 65778 13184 51%
c = 16.97 29 241 0 24 6621 23 79983 14962 3.5 29 8 2 7 27% 9969 65684 12886 50%
c d 16.97 29 241 0 24 6621 23 79983 14096 3.5 29 8 2 7 27% 9304 65684 12886 50%
c t 16.98 29 241 0 24 6621 23 79983 14096 3.5 29 8 2 7 27% 9200 65684 12886 50%
c f 17.00 29 241 0 24 6621 23 79983 14096 3.5 29 8 2 7 27% 9193 65678 12888 50%
c u 17.07 29 241 0 24 6621 23 79983 13252 3.5 29 8 2 7 27% 9186 65678 12888 50%
c v 17.12 29 241 0 24 6621 23 79983 12251 3.5 29 8 2 7 27% 9189 65678 12888 50%
c w 17.15 29 241 0 24 6621 23 79983 12243 3.5 29 8 2 7 27% 9189 65678 12888 50%
c x 17.20 29 241 0 24 6621 23 79983 12243 3.5 29 8 2 7 27% 9189 64930 12888 50%
c = 17.46 29 241 0 24 6621 23 79983 12243 3.5 29 8 2 7 27% 9197 64918 12882 50%
c d 17.46 29 241 0 24 6621 23 79983 12237 3.5 29 8 2 7 27% 9190 64918 12882 50%
c t 17.47 29 241 0 24 6621 23 79983 12237 3.5 29 8 2 7 27% 9185 64918 12882 50%
c - 17.65 29 240 0 25 6733 23 81647 11974 3.5 29 8 2 7 27% 9187 64917 12882 50%
c - 18.11 29 233 0 26 7021 22 86648 14524 3.4 28 8 2 7 27% 9234 64916 12882 50%
c - 18.77 29 226 0 27 7483 22 91747 16869 3.4 28 8 2 7 27% 9301 64916 12882 50%
c i 18.86 29 223 0 27 7533 22 93538 18328 3.3 27 8 2 7 27% 9332 64916 12881 50%
c i 18.95 29 223 0 27 7584 22 94066 18823 3.3 27 8 2 7 27% 9339 64916 12880 50%
c i 18.99 29 222 0 27 7608 22 94748 19407 3.3 27 8 2 7 27% 9351 64915 12879 50%
c
c  seconds   switched     rate         size/glue tier1    binary         remaining
c         MB   reductions   conflicts        size  tier2     irredundant
c           level   restarts      redundant    glue   trail         variables
c
c i 18.99 29 222 0 27 7608 22 94790 19432 3.3 27 8 2 7 27% 9355 64915 12878 50%
c i 19.00 29 221 0 27 7608 22 94963 19576 3.3 27 8 2 7 27% 9360 64915 12877 50%
c s 19.12 29 220 0 27 7692 22 95813 20342 3.3 27 8 2 7 27% 9370 63838 12877 50%
c e 19.19 29 220 0 27 7692 22 95813 20342 3.3 27 8 2 7 27% 6382 70632 11237 43%
c 2 19.19 29 220 0 27 7692 22 95813 20342 3.3 27 8 2 7 27% 6377 70632 11237 43%
c s 19.20 29 220 0 27 7692 22 95813 20342 3.3 27 8 2 7 27% 6385 70094 11237 43%
c e 19.21 29 220 0 27 7692 22 95813 20342 3.3 27 8 2 7 27% 6352 70135 11220 43%
c ^ 19.21 29 220 0 27 7692 22 95813 20342 3.3 27 8 2 7 27% 6352 70135 11220 43%
c - 19.39 29 219 0 28 7822 22 96943 13393 3.3 27 8 2 7 28% 6372 70133 11220 43%
c i 19.83 29 214 0 28 8152 22 100242 16332 3.3 27 8 2 7 28% 6425 70132 11219 43%
c i 19.92 29 213 0 28 8227 22 101146 17122 3.3 27 8 2 7 28% 6440 70132 11218 43%
c i 19.94 29 212 0 28 8242 22 101406 17318 3.3 27 8 2 7 28% 6449 70132 11217 43%
c - 20.00 29 211 0 29 8287 21 102234 14019 3.3 27 8 1 7 28% 6450 70130 11217 43%
c i 20.02 29 210 0 29 8298 21 102581 14321 3.3 27 8 1 7 28% 6452 70130 11216 43%
c i 20.11 29 209 0 29 8386 21 103231 14919 3.2 27 8 1 7 28% 6455 70130 11215 43%
c d 20.20 29 207 0 29 8429 21 104660 15863 3.2 27 8 1 7 28% 6391 70072 11174 43%
c d 20.20 29 207 0 29 8429 21 104660 15861 3.2 27 8 1 7 28% 6380 70066 11169 43%
c u 20.23 29 207 0 29 8429 21 104660 14075 3.2 27 8 1 7 28% 6416 70066 11164 43%
c v 20.31 29 207 0 29 8429 21 104660 11188 3.2 27 8 1 7 28% 6422 70066 11164 43%
c w 20.35 29 207 0 29 8429 21 104660 11161 3.2 27 8 1 7 28% 6421 70066 11164 43%
c
c  seconds   switched     rate          size/glue tier1    binary         remaining
c         MB   reductions   conflicts         size  tier2     irredundant
c           level   restarts       redundant    glue   trail         variables
c
c x 20.42 29 207 0 29 8429 21 104660 11161 3.2 27 8 1 7 28% 6438 69921 11164 43%
c = 20.73 29 207 0 29 8429 21 104660 11161 3.2 27 8 1 7 28% 6541 69875 11108 43%
c d 20.74 29 207 0 29 8429 21 104660 11054 3.2 27 8 1 7 28% 6380 69875 11106 43%
c t 20.75 29 207 0 29 8429 21 104660 11054 3.2 27 8 1 7 28% 6279 69875 11106 43%
c f 20.79 29 207 0 29 8429 21 104660 11054 3.2 27 8 1 7 28% 6290 69802 11112 43%
c u 20.84 29 207 0 29 8429 21 104660 10681 3.2 27 8 1 7 28% 6291 69802 11112 43%
c v 20.90 29 207 0 29 8429 21 104660 10042 3.2 27 8 1 7 28% 6294 69802 11112 43%
c w 21.02 29 207 0 29 8429 21 104660 9964 3.2 27 8 1 7 28% 6294 69802 11112 43%
c = 21.37 29 207 0 29 8429 21 104660 9964 3.2 27 8 1 7 28% 6408 69682 11042 42%
c d 21.37 29 207 0 29 8429 21 104660 9853 3.2 27 8 1 7 28% 6294 69682 11042 42%
c t 21.38 29 207 0 29 8429 21 104660 9853 3.2 27 8 1 7 28% 6238 69682 11042 42%
c f 21.39 29 207 0 29 8429 21 104660 9853 3.2 27 8 1 7 28% 6243 69658 11044 42%
c i 21.39 29 207 0 29 8429 21 104660 9853 3.2 27 8 1 7 28% 6243 69658 11044 42%
c i 21.41 29 206 0 29 8451 21 104892 10055 3.2 27 8 1 7 28% 6246 69658 11043 42%
c i 21.41 29 206 0 29 8457 21 104933 10091 3.2 27 8 1 7 28% 6250 69658 11042 42%
c i 21.42 29 206 0 29 8461 21 104974 10118 3.2 27 8 1 7 28% 6253 69658 11041 42%
c i 21.43 29 205 0 29 8497 21 105171 10301 3.2 27 8 1 7 28% 6254 69657 11040 42%
c i 21.43 29 204 0 29 8497 21 105556 10582 3.2 26 8 1 7 28% 6268 69653 11038 42%
c i 21.44 29 204 0 29 8499 21 105671 10661 3.2 26 8 1 7 28% 6275 69651 11037 42%
c i 21.44 29 204 0 29 8499 21 105673 10661 3.2 26 8 1 7 28% 6276 69651 11020 42%
c
c  seconds   switched     rate          size/glue tier1    binary         remaining
c         MB   reductions   conflicts         size  tier2     irredundant
c           level   restarts       redundant    glue   trail         variables
c
c i 21.44 29 204 0 29 8499 21 105675 10661 3.2 26 8 1 7 28% 6277 69651 11014 42%
c i 21.44 29 204 0 29 8499 21 105676 10661 3.2 26 8 1 7 28% 6277 69651 10995 42%
c } 21.44 29 204 0 29 8499 21 105681 10662 3.2 26 8 1 7 28% 6278 69651 10972 42%
c 0 21.44 29 204 0 29 8499 21 105681 10662 3.2 26 8 1 7 28% 6278 69651 10972 42%
c
c ---- [ result ] ------------------------------------------------------------
c
s UNSATISFIABLE
c
c ---- [ profiling ] ---------------------------------------------------------
c
c          14.07   65.64 %  search
c          14.07   65.64 %  focused
c           7.07   32.96 %  simplify
c           6.78   31.61 %  probe
c           3.18   14.82 %  sweep
c           2.31   10.80 %  vivify
c           0.48    2.23 %  factor
c           0.43    2.02 %  eliminate
c           0.34    1.57 %  substitute
c           0.33    1.56 %  congruence
c           0.26    1.20 %  preprocess
c           0.13    0.59 %  reduce
c           0.11    0.51 %  fastel
c           0.09    0.44 %  transitive
c           0.08    0.37 %  subsume
c           0.04    0.18 %  backbone
c           0.02    0.11 %  lucky
c           0.02    0.09 %  parse
c =============================================
c          21.44  100.00 %  total
c
c ---- [ statistics ] --------------------------------------------------------
c
c chronological:                         4666                4 %  conflicts
c conflicts:                           105681             4929.29 per second
c congruent:                              249                1 %  variables
c decisions:                          2277432               21.55 per conflict
c eliminated:                           12539               48 %  variables
c factored:                              5782               22 %  variables
c fast_eliminated:                       8910               71 %  eliminated
c fast_strengthened:                       50                6 %  per strengthened
c fast_subsumed:                           79                1 %  per subsumed
c iterations:                              20                0 %  variables
c propagations:                     101176488          4719188    per second
c reductions:                              29             3644    interval
c reordered:                                4            26420    interval
c restarts:                              8499               12    interval
c strengthened:                           785                0 %  checks
c substituted:                           8145               31 %  variables
c subsumed:                             13009                1 %  checks
c switched:                                 0                0    interval
c vivified:                             60088               14 %  checks
c
c ---- [ glue usage ] --------------------------------------------------------
c
c focused glue 1   used 120246 clauses 50.03% accumulated 50.03% tier1
c focused glue 2   used  54955 clauses 22.86% accumulated 72.89%
c focused glue 3-4 used  28650 clauses 11.92% accumulated 84.81%
c focused glue 5   used   7206 clauses  3.00% accumulated 87.81%
c focused glue 6   used   5347 clauses  2.22% accumulated 90.03% tier2
c
c ---- [ resources ] ---------------------------------------------------------
c
c maximum-resident-set-size:         30130176 bytes         29 MB
c process-time:                            21s              21.44 seconds
c
c ---- [ shutting down ] -----------------------------------------------------
c
c exit 20
